1 1
2 2
3 2
4 1
5 1
6 2
7 2
8 1
9 1
10 2
11 2
12 2
13 2
14 1
15 2
16 1
17 1
18 2
19 2
20 1
21 1
22 1
23 2
24 1
25 2
26 2
27 2
28 1
29 2
30 2
31 1
32 2
33 1
34 1
35 2
36 2
37 2
38 1
39 1
40 2
41 1
42 2
43 2
44 2
45 1
46 1
47 2
48 2
49 1
50 2
51 2
52 1
53 2
54 1
55 2
56 2
57 1
58 2
59 2
60 1
61 1
62 2
63 2
64 2
65 1
66 1
67 1
68 1
69 1
70 1
71 2
72 1
73 1
74 1
75 1
76 1
77 2
78 2
79 1
80 1
81 1
82 2
83 2
84 2
85 2
86 2
87 2
88 2
89 1
90 1
91 1
92 2
93 1
94 1
95 2
96 2
97 2
98 1
99 1
100 2
101 2
102 1
103 2
104 2
105 2
106 2
107 2
108 2
109 2
110 1
111 1
112 2
113 2
114 2
115 2
116 2
117 2
118 1
119 2
120 2
121 2
122 2
123 1
124 2
125 2
126 1
127 1
128 1
129 1
130 1
131 1
132 1
133 2
134 1
135 2
136 1
137 2
138 2
139 1
140 1
141 1
142 2
143 2
144 1
145 2
146 1
147 1
148 2
149 2
150 2
151 1
152 2
153 2
154 1
155 2
156 1
157 1
158 1
159 2
160 1
161 2
162 2
163 2
164 1
165 1
166 1
167 1
168 2
169 2
170 1
171 2
172 2
173 2
174 1
175 1
176 2
177 1
178 1
179 1
180 1
181 2
182 1
183 2
184 2
185 2
186 1
187 2
188 1
189 2
190 1
191 1
192 2
193 2
194 1
195 2
196 1
197 2
198 1
199 1
200 2
201 2
202 2
203 2
204 2
205 1
206 1
207 2
208 1
209 2
210 1
211 2
212 2
213 1
214 1
215 1
216 1
217 2
218 1
219 1
220 1
221 2
222 2
223 1
224 1
225 2
226 2
227 2
228 1
229 1
230 1
231 1
232 1
233 2
234 2
235 1
236 2
237 1
238 1
239 1
240 1
241 1
242 2
243 1
244 1
245 1
246 2
247 2
248 1
249 1
250 1
251 1
252 2
253 2
254 2
255 1
256 2
257 1
258 2
259 1
260 2
261 1
262 1
263 2
264 1
265 1
266 1
267 1
268 2
269 2
270 2
271 2
272 2
273 1
274 1
275 1
276 2
277 1
278 1
279 2
280 1
281 2
282 2
283 2
284 2
285 1
286 1
287 1
288 1
289 1
290 2
291 1
292 1
293 1
294 2
295 2
296 2
297 2
298 2
299 2
300 2
301 2
302 2
303 2
304 1
305 2
306 2
307 2
308 2
309 1
310 2
311 2
312 1
313 1
314 2
315 1
316 1
317 1
318 1
319 2
320 2
321 2
322 2
323 1
324 1
325 2
326 2
327 1
328 2
329 2
330 1
331 1
332 1
333 1
334 1
335 2
336 1
337 1
338 2
339 2
340 2
341 1
342 2
343 1
344 1
345 2
346 1
347 2
348 2
349 2
350 2
351 1
352 1
353 2
354 2
355 2
356 2
357 1
358 2
359 1
360 1
361 2
362 1
363 2
364 1
365 1
366 1
367 2
368 1
369 1
370 1
371 2
372 2
373 1
374 2
375 1
376 2
377 1
378 2
379 1
380 2
381 1
382 2
383 2
384 1
385 2
386 1
387 1
388 2
389 2
390 1
391 2
392 2
393 1
394 2
395 2
396 1
397 2
398 1
399 1
400 1
401 2
402 2
403 1
404 2
405 1
406 1
407 2
408 1
409 1
410 2
411 1
412 2
413 1
414 1
415 1
416 1
417 2
418 2
419 1
420 2
421 1
422 2
423 2
424 2
425 2
426 2
427 1
428 1
429 1
430 1
431 2
432 1
433 1
434 2
435 2
436 2
437 2
438 2
439 2
440 1
441 2
442 2
443 2
444 2
445 1
446 2
447 2
448 2
449 1
450 1
451 2
452 2
453 2
454 2
455 1
456 2
457 2
458 1
459 2
460 1
461 2
462 1
463 2
464 2
465 1
466 1
467 1
468 1
469 2
470 2
471 1
472 2
473 1
474 2
475 2
476 1
477 1
478 2
479 2
480 2
481 1
482 2
483 2
484 2
485 2
486 2
487 1
488 2
489 2
490 1
491 1
492 1
493 2
494 2
495 1
496 2
497 2
498 1
499 2
500 1
501 2
502 2
503 1
504 2
505 2
506 2
507 2
508 1
509 1
510 2
511 2
512 2
513 2
514 2
515 1
516 2
517 1
518 2
519 2
520 1
521 2
522 1
523 1
524 1
525 1
526 2
527 1
528 2
529 2
530 2
531 2
532 1
533 1
534 2
535 1
536 2
537 2
538 2
539 2
540 2
541 1
542 2
543 1
544 1
545 1
546 2
547 1
548 2
549 2
550 2
551 2
552 2
553 2
554 1
555 2
556 2
557 2
558 2
559 2
560 1
561 1
562 1
563 1
564 2
565 1
566 1
567 1
568 2
569 1
570 2
571 1
572 1
573 1
574 1
575 1
576 2
577 1
578 1
579 2
580 1
581 2
582 1
583 2
584 1
585 2
586 1
587 1
588 1
589 2
590 2
591 1
592 2
593 2
594 1
595 1
596 1
597 1
598 2
599 2
600 2
601 1
602 1
603 1
604 2
605 2
606 2
607 2
608 2
609 1
610 1
611 2
612 2
613 1
614 1
615 2
616 2
617 2
618 2
619 1
620 2
621 2
622 2
623 2
624 2
625 1
626 2
627 2
628 2
629 2
630 1
631 2
632 1
633 1
634 1
635 2
636 1
637 1
638 2
639 2
640 2
641 2
642 1
643 1
644 2
645 2
646 1
647 2
648 1
649 2
650 1
651 2
652 2
653 2
654 1
655 2
656 2
657 2
658 2
659 1
660 2
661 1
662 2
663 1
664 2
665 2
666 1
667 1
668 1
669 1
670 1
671 2
672 2
673 2
674 2
675 2
676 2
677 1
678 1
679 2
680 2
681 1
682 1
683 1
684 2
685 2
686 2
687 2
688 2
689 2
690 1
691 1
692 2
693 1
694 2
695 1
696 2
697 2
698 1
699 1
700 1
701 2
702 1
703 1
704 2
705 2
706 1
707 2
708 1
709 2
710 2
711 2
712 2
713 2
714 2
715 2
716 2
717 2
718 2
719 2
720 2
721 1
722 2
723 2
724 2
725 2
726 2
727 1
728 1
729 1
730 2
731 2
732 1
733 1
734 1
735 1
736 2
737 2
738 2
739 2
740 2
741 2
742 1
743 1
744 2
745 2
746 1
747 2
748 1
749 1
750 1
751 1
752 2
753 1
754 2
755 2
756 1
757 2
758 1
759 2
760 1
761 1
762 1
763 1
764 1
765 1
766 1
767 2
768 1
769 1
770 1
771 1
772 1
773 1
774 2
775 1
776 2
777 2
778 2
779 2
780 2
781 1
782 1
783 1
784 2
785 2
786 2
787 1
788 2
789 2
790 2
791 1
792 1
793 2
794 2
795 1
796 2
797 1
798 2
799 2
800 1
801 2
802 1
803 2
804 2
805 2
806 1
807 1
808 1
809 1
810 2
811 1
812 2
813 1
814 1
815 2
816 2
817 1
818 2
819 2
820 2
821 1
822 2
823 2
824 2
825 1
826 2
827 2
828 1
829 2
830 2
831 2
832 2
833 1
834 2
835 1
836 2
837 1
838 2
839 2
840 2
841 1
842 1
843 2
844 1
845 1
846 2
847 2
848 2
849 1
850 2
851 1
852 1
853 1
854 1
855 1
856 1
857 1
858 2
859 1
860 1
861 2
862 1
863 2
864 2
865 2
866 1
867 1
868 1
869 1
870 1
871 2
872 2
873 1
874 1
875 1
876 2
877 2
878 2
879 2
880 2
881 1
882 1
883 1
884 2
885 1
886 2
887 2
888 2
889 1
890 2
891 2
892 1
893 2
894 2
895 2
896 2
897 2
898 2
899 2
900 1
901 1
902 2
903 2
904 1
905 2
906 2
907 1
908 2
909 2
910 1
911 2
912 2
913 1
914 2
915 2
916 1
917 1
918 1
919 2
920 1
921 2
922 2
923 2
924 1
925 2
926 2
927 1
928 1
929 2
930 1
931 2
932 1
933 1
934 1
935 2
936 2
937 2
938 2
939 1
940 1
941 2
942 2
943 1
944 1
945 2
946 1
947 2
948 2
949 2
950 2
951 2
952 2
953 2
954 2
955 2
956 1
957 1
958 1
959 2
960 2
961 2
962 1
963 2
964 2
965 1
966 1
967 1
968 1
969 1
970 2
971 2
972 1
973 2
974 2
975 2
976 1
977 2
978 2
979 1
980 1
981 2
982 2
983 1
984 1
985 1
986 1
987 1
988 2
989 2
990 2
991 1
992 2
993 1
994 2
995 1
996 2
997 2
998 2
999 1
1000 2
1001 1
1002 2
1003 1
1004 1
1005 2
1006 1
1007 1
1008 1
1009 2
1010 1
1011 1
1012 2
1013 2
1014 2
1015 1
1016 1
1017 1
1018 2
1019 1
1020 2
1021 1
1022 1
1023 1
1024 2
1025 1
1026 2
1027 1
1028 2
1029 1
1030 1
1031 2
1032 1
1033 2
1034 2
1035 2
1036 2
1037 2
1038 2
1039 2
1040 2
1041 1
1042 1
1043 1
1044 1
1045 2
1046 2
1047 2
1048 2
1049 1
1050 2
1051 1
1052 2
1053 1
1054 2
1055 2
1056 2
1057 2
1058 1
1059 1
1060 1
1061 1
1062 2
1063 2
1064 2
1065 1
1066 2
1067 1
1068 2
1069 2
1070 2
1071 1
1072 1
1073 2
1074 1
1075 1
1076 1
1077 1
1078 1
1079 2
1080 1
1081 1
1082 2
1083 2
1084 2
1085 2
1086 2
1087 1
1088 2
1089 1
1090 1
1091 1
1092 1
1093 2
1094 2
1095 2
1096 1
1097 1
1098 2
1099 2
1100 1
1101 1
1102 2
1103 1
1104 2
1105 1
1106 2
1107 1
1108 2
1109 2
1110 2
1111 2
1112 2
1113 1
1114 2
1115 2
1116 1
1117 2
1118 1
1119 1
1120 2
1121 2
1122 1
1123 1
1124 1
1125 1
1126 2
1127 1
1128 1
1129 2
1130 2
1131 1
1132 2
1133 2
1134 1
1135 2
1136 2
1137 2
1138 2
1139 1
1140 1
1141 2
1142 2
1143 2
1144 1
1145 2
1146 2
1147 1
1148 1
1149 1
1150 2
1151 2
1152 2
1153 2
1154 2
1155 1
1156 1
1157 2
1158 2
1159 2
1160 1
1161 2
1162 2
1163 1
1164 1
1165 2
1166 2
1167 2
1168 1
1169 1
1170 1
1171 2
1172 1
1173 1
1174 1
1175 1
1176 2
1177 1
1178 1
1179 2
1180 2
1181 1
1182 1
1183 2
1184 2
1185 2
1186 1
1187 2
1188 1
1189 2
1190 2
1191 2
1192 2
1193 1
1194 2
1195 1
1196 2
1197 2
1198 2
1199 2
1200 2
1201 1
1202 1
1203 2
1204 1
1205 1
1206 2
1207 1
1208 2
1209 2
1210 2
1211 2
1212 1
1213 2
1214 1
1215 1
1216 2
1217 2
1218 1
1219 2
1220 2
1221 2
1222 2
1223 2
1224 1
1225 2
1226 2
1227 2
1228 2
1229 2
1230 2
1231 1
1232 1
1233 1
1234 1
1235 2
1236 1
1237 2
1238 1
1239 2
1240 2
1241 1
1242 1
1243 2
1244 2
1245 1
1246 2
1247 2
1248 1
1249 2
1250 2
1251 1
1252 2
1253 1
1254 1
1255 2
1256 1
1257 1
1258 1
1259 2
1260 2
1261 2
1262 2
1263 1
1264 2
1265 1
1266 1
1267 2
1268 1
1269 2
1270 1
1271 2
1272 2
1273 2
1274 1
1275 2
1276 1
1277 2
1278 1
1279 1
1280 2
1281 1
1282 1
1283 2
1284 2
1285 1
1286 1
1287 2
1288 2
1289 1
1290 2
1291 2
1292 2
1293 2
1294 1
1295 1
1296 1
1297 2
1298 2
1299 1
1300 1
1301 2
1302 1
1303 2
1304 2
1305 1
1306 1
1307 2
1308 2
1309 2
1310 2
1311 2
1312 1
1313 2
1314 1
1315 2
1316 2
1317 2
1318 1
1319 2
1320 2
1321 2
1322 1
1323 2
1324 1
1325 2
1326 2
1327 1
1328 1
1329 1
1330 1
1331 2
1332 2
1333 1
1334 1
1335 1
1336 1
1337 2
1338 1
1339 1
1340 1
1341 1
1342 1
1343 1
1344 1
1345 2
1346 2
1347 2
1348 1
1349 1
1350 2
1351 1
1352 1
1353 1
1354 1
1355 2
1356 2
1357 2
1358 1
1359 1
1360 2
1361 1
1362 2
1363 1
1364 1
1365 1
1366 1
1367 2
1368 2
1369 1
1370 1
1371 1
1372 2
1373 1
1374 2
1375 1
1376 2
1377 1
1378 1
1379 1
1380 1
1381 2
1382 2
1383 1
1384 2
1385 2
1386 2
1387 1
1388 1
1389 1
1390 2
1391 2
1392 1
1393 1
1394 2
1395 1
1396 2
1397 2
1398 2
1399 2
1400 1
1401 1
1402 1
1403 1
1404 2
1405 1
1406 2
1407 2
1408 1
1409 2
1410 1
1411 1
1412 2
1413 2
1414 2
1415 1
1416 1
1417 2
1418 2
1419 2
1420 1
1421 2
1422 2
1423 1
1424 1
1425 2
1426 2
1427 2
1428 2
1429 2
1430 1
1431 2
1432 1
1433 2
1434 2
1435 1
1436 1
1437 1
1438 2
1439 1
1440 2
1441 2
1442 1
1443 2
1444 2
1445 2
1446 2
1447 2
1448 2
1449 1
1450 2
1451 1
1452 1
1453 1
1454 1
1455 2
1456 2
1457 2
1458 2
1459 1
1460 1
1461 1
1462 2
1463 1
1464 2
1465 2
1466 2
1467 2
1468 2
1469 2
1470 1
1471 2
1472 2
1473 1
1474 2
1475 2
1476 1
1477 1
1478 2
1479 2
1480 1
1481 1
1482 2
1483 2
1484 1
1485 2
1486 1
1487 1
1488 2
1489 2
1490 1
1491 1
1492 1
1493 2
1494 2
1495 2
1496 2
1497 2
1498 2
1499 1
1500 2
1501 1
1502 1
1503 2
1504 2
1505 1
1506 2
1507 2
1508 1
1509 2
1510 1
1511 2
1512 2
1513 2
1514 2
1515 1
1516 2
1517 2
1518 2
1519 1
1520 1
1521 1
1522 2
1523 1
1524 2
1525 1
1526 2
1527 1
1528 1
1529 1
1530 1
1531 1
1532 1
1533 2
1534 2
1535 2
1536 1
1537 2
1538 1
1539 1
1540 2
1541 2
1542 1
1543 2
1544 2
1545 2
1546 1
1547 1
1548 1
1549 1
1550 2
1551 2
1552 2
1553 1
1554 2
1555 1
1556 1
1557 2
1558 2
1559 2
1560 2
1561 2
1562 1
1563 1
1564 1
1565 1
1566 1
1567 1
1568 2
1569 2
1570 2
1571 2
1572 2
1573 2
1574 1
1575 1
1576 1
1577 2
1578 2
1579 1
1580 1
1581 1
1582 2
1583 2
1584 2
1585 1
1586 1
1587 1
1588 2
1589 1
1590 1
1591 2
1592 1
1593 2
1594 2
1595 2
1596 1
1597 2
1598 1
1599 2
1600 1
1601 1
1602 2
1603 2
1604 2
1605 2
1606 2
1607 1
1608 2
1609 1
1610 2
1611 2
1612 2
1613 1
1614 1
1615 1
1616 1
1617 2
1618 1
1619 1
1620 1
1621 2
1622 2
1623 1
1624 2
1625 2
1626 2
1627 1
1628 1
1629 1
1630 1
1631 2
1632 1
1633 1
1634 1
1635 1
1636 1
1637 1
1638 1
1639 1
1640 1
1641 1
1642 2
1643 1
1644 1
1645 1
1646 1
1647 1
1648 1
1649 1
1650 1
1651 1
1652 1
1653 1
1654 2
1655 2
1656 1
1657 2
1658 2
1659 2
1660 1
1661 1
1662 1
1663 1
1664 1
1665 2
1666 2
1667 2
1668 2
1669 2
1670 1
1671 1
1672 1
1673 1
1674 2
1675 1
1676 2
1677 1
1678 1
1679 2
1680 1
1681 2
1682 2
1683 2
1684 2
1685 1
1686 1
1687 2
1688 2
1689 2
1690 1
1691 1
1692 1
1693 2
1694 2
1695 2
1696 1
1697 2
1698 2
1699 1
1700 1
1701 2
1702 1
1703 1
1704 2
1705 2
1706 1
1707 2
1708 2
1709 1
1710 1
1711 1
1712 2
1713 1
1714 2
1715 1
1716 1
1717 1
1718 2
1719 1
1720 2
1721 2
1722 2
1723 1
1724 2
1725 2
1726 1
1727 2
1728 1
1729 1
1730 2
1731 2
1732 2
1733 1
1734 1
1735 2
1736 1
1737 2
1738 1
1739 1
1740 1
1741 1
1742 1
1743 1
1744 1
1745 1
1746 1
1747 2
1748 1
1749 2
1750 2
1751 1
1752 2
1753 1
1754 2
1755 2
1756 2
1757 2
1758 2
1759 2
1760 1
1761 2
1762 1
1763 1
1764 2
1765 2
1766 1
1767 2
1768 2
1769 2
1770 2
1771 1
1772 2
1773 1
1774 2
1775 2
1776 2
1777 1
1778 1
1779 2
1780 1
1781 2
1782 1
1783 1
1784 1
1785 2
1786 2
1787 2
1788 2
1789 1
1790 2
1791 1
1792 1
1793 2
1794 2
1795 2
1796 2
1797 2
1798 1
1799 1
1800 2
1801 1
1802 1
1803 2
1804 2
1805 1
1806 1
1807 1
1808 2
1809 1
1810 1
1811 1
1812 1
1813 1
1814 1
1815 2
1816 1
1817 2
1818 2
1819 1
1820 2
1821 2
1822 2
1823 1
1824 1
1825 1
1826 2
1827 2
1828 2
1829 2
1830 1
1831 1
1832 1
1833 1
1834 1
1835 2
1836 2
1837 2
1838 2
1839 1
1840 2
1841 1
1842 1
1843 2
1844 2
1845 1
1846 2
1847 1
1848 2
1849 2
1850 2
1851 2
1852 2
1853 2
1854 1
1855 2
1856 2
1857 1
1858 1
1859 1
1860 1
1861 2
1862 2
1863 1
1864 1
1865 2
1866 2
1867 1
1868 2
1869 2
1870 2
1871 2
1872 2
1873 1
1874 1
1875 1
1876 1
1877 2
1878 1
1879 2
1880 2
1881 1
1882 1
1883 1
1884 1
1885 1
1886 2
1887 2
1888 2
1889 2
1890 2
1891 2
1892 2
1893 2
1894 1
1895 1
1896 1
1897 1
1898 1
1899 2
1900 1
1901 1
1902 1
1903 2
1904 1
1905 2
1906 1
1907 2
1908 1
1909 1
1910 1
1911 1
1912 2
1913 2
1914 1
1915 1
1916 2
1917 1
1918 1
1919 2
1920 1
1921 2
1922 1
1923 2
1924 2
1925 2
1926 1
1927 1
1928 1
1929 1
1930 2
1931 2
1932 2
1933 2
1934 2
1935 1
1936 2
1937 2
1938 1
1939 2
1940 1
1941 2
1942 2
1943 2
1944 1
1945 2
1946 2
1947 1
1948 2
1949 2
1950 2
1951 2
1952 1
1953 1
1954 1
1955 2
1956 1
1957 1
1958 1
1959 1
1960 2
1961 2
1962 2
1963 2
1964 2
1965 2
1966 2
1967 2
1968 2
1969 1
1970 1
1971 2
1972 2
1973 1
1974 2
1975 1
1976 2
1977 1
1978 2
1979 1
1980 1
1981 1
1982 1
1983 1
1984 1
1985 1
1986 1
1987 1
1988 1
1989 1
1990 1
1991 1
1992 1
1993 2
1994 2
1995 2
1996 2
1997 1
1998 1
1999 1
2000 1
2001 2
2002 2
2003 2
2004 1
2005 1
2006 2
2007 1
2008 1
2009 1
2010 1
2011 1
2012 1
2013 1
2014 2
2015 2
2016 1
2017 1
2018 2
2019 2
2020 2
2021 1
2022 2
2023 1
2024 2
2025 1
2026 1
2027 1
2028 1
2029 1
2030 1
2031 2
2032 2
2033 2
2034 2
2035 1
2036 1
2037 1
2038 1
2039 1
2040 1
2041 2
2042 1
2043 1
2044 1
2045 1
2046 1
2047 2
2048 1
2049 2
2050 1
2051 2
2052 1
2053 1
2054 1
2055 2
2056 1
2057 2
2058 1
2059 2
2060 2
2061 2
2062 1
2063 1
2064 1
2065 2
2066 1
2067 1
2068 1
2069 1
2070 2
2071 1
2072 1
2073 2
2074 1
2075 1
2076 2
2077 1
2078 2
2079 2
2080 2
2081 2
2082 1
2083 2
2084 2
2085 1
2086 2
2087 2
2088 1
2089 1
2090 2
2091 1
2092 1
2093 1
2094 1
2095 2
2096 1
2097 1
2098 1
2099 1
2100 1
2101 1
2102 1
2103 1
2104 2
2105 1
2106 2
2107 1
2108 1
2109 2
2110 1
2111 1
2112 2
2113 2
2114 1
2115 2
2116 1
2117 2
2118 2
2119 2
2120 1
2121 1
2122 2
2123 1
2124 2
2125 1
2126 1
2127 1
2128 1
2129 1
2130 2
2131 2
2132 2
2133 1
2134 1
2135 1
2136 2
2137 2
2138 1
2139 1
2140 1
2141 2
2142 2
2143 1
2144 2
2145 1
2146 1
2147 1
2148 1
2149 2
2150 2
2151 2
2152 2
2153 2
2154 1
2155 1
2156 1
2157 1
2158 2
2159 2
2160 1
2161 2
2162 1
2163 2
2164 1
2165 2
2166 2
2167 2
2168 1
2169 1
2170 1
2171 1
2172 1
2173 1
2174 2
2175 1
2176 1
2177 2
2178 2
2179 1
2180 2
2181 2
2182 2
2183 1
2184 1
2185 1
2186 2
2187 2
2188 1
2189 2
2190 1
2191 2
2192 1
2193 2
2194 1
2195 1
2196 2
2197 1
2198 2
2199 1
2200 1
2201 1
2202 2
2203 2
2204 1
2205 2
2206 1
2207 2
2208 1
2209 2
2210 1
2211 1
2212 1
2213 2
2214 1
2215 1
2216 2
2217 2
2218 1
2219 1
2220 2
2221 1
2222 2
2223 2
2224 2
2225 2
2226 1
2227 1
2228 2
2229 1
2230 1
2231 1
2232 1
2233 2
2234 1
2235 1
2236 1
2237 2
2238 2
2239 1
2240 1
2241 2
2242 1
2243 2
2244 2
2245 1
2246 1
2247 1
2248 1
2249 2
2250 2
2251 2
2252 1
2253 2
2254 2
2255 1
2256 2
2257 1
2258 1
2259 2
2260 1
2261 1
2262 1
2263 2
2264 2
2265 1
2266 1
2267 2
2268 1
2269 1
2270 2
2271 1
2272 1
2273 1
2274 2
2275 2
2276 1
2277 1
2278 1
2279 1
2280 2
2281 1
2282 2
2283 2
2284 2
2285 1
2286 1
2287 1
2288 1
2289 2
2290 2
2291 2
2292 2
2293 1
2294 2
2295 2
2296 1
2297 1
2298 2
2299 2
2300 1
2301 2
2302 1
2303 1
2304 2
2305 2
2306 2
2307 1
2308 2
2309 2
2310 2
2311 2
2312 2
2313 1
2314 1
2315 1
2316 2
2317 2
2318 1
2319 2
2320 1
2321 1
2322 1
2323 2
2324 1
2325 1
2326 2
2327 1
2328 1
2329 2
2330 1
2331 2
2332 2
2333 2
2334 2
2335 2
2336 2
2337 2
2338 2
2339 1
2340 1
2341 1
2342 1
2343 1
2344 1
2345 1
2346 1
2347 1
2348 1
2349 1
2350 2
2351 2
2352 2
2353 2
2354 2
2355 1
2356 1
2357 1
2358 2
2359 2
2360 2
2361 1
2362 2
2363 1
2364 1
2365 2
2366 2
2367 1
2368 1
2369 2
2370 1
2371 1
2372 2
2373 1
2374 1
2375 2
2376 1
2377 1
2378 2
2379 2
2380 1
2381 1
2382 2
2383 1
2384 1
2385 2
2386 1
2387 1
2388 2
2389 2
2390 2
2391 1
2392 1
2393 2
2394 1
2395 2
2396 2
2397 1
2398 1
2399 1
2400 1
2401 1
2402 1
2403 1
2404 1
2405 2
2406 2
2407 1
2408 1
2409 2
2410 1
2411 2
2412 2
2413 1
2414 1
2415 2
2416 1
2417 1
2418 2
2419 1
2420 1
2421 1
2422 1
2423 1
2424 1
2425 1
2426 2
2427 1
2428 2
2429 2
2430 2
2431 1
2432 2
2433 2
2434 1
2435 2
2436 1
2437 1
2438 1
2439 1
2440 2
2441 1
2442 1
2443 1
2444 1
2445 1
2446 2
2447 1
2448 1
2449 2
2450 2
2451 1
2452 2
2453 1
2454 2
2455 2
2456 2
2457 1
2458 1
2459 1
2460 1
2461 1
2462 2
2463 1
2464 2
2465 1
2466 2
2467 1
2468 1
2469 1
2470 1
2471 2
2472 1
2473 1
2474 2
2475 2
2476 1
2477 1
2478 1
2479 1
2480 1
2481 2
2482 1
2483 1
2484 1
2485 2
2486 1
2487 1
2488 1
2489 1
2490 1
2491 2
2492 1
2493 1
2494 1
2495 2
2496 2
2497 1
2498 2
2499 1
2500 1
2501 2
2502 2
2503 2
2504 1
2505 1
2506 1
2507 1
2508 1
2509 1
2510 1
2511 1
2512 1
2513 2
2514 2
2515 1
2516 1
2517 2
2518 2
2519 2
2520 2
2521 1
2522 2
2523 1
2524 1
2525 2
2526 2
2527 1
2528 1
2529 1
2530 1
2531 1
2532 2
2533 2
2534 1
2535 1
2536 2
2537 1
2538 2
2539 2
2540 1
2541 1
2542 2
2543 2
2544 2
2545 2
2546 1
2547 2
2548 1
2549 1
2550 1
2551 2
2552 2
2553 2
2554 1
2555 2
2556 2
2557 2
2558 2
2559 1
2560 2
2561 2
2562 1
2563 1
2564 1
2565 1
2566 1
2567 2
2568 1
2569 1
2570 1
2571 1
2572 1
2573 2
2574 1
2575 2
2576 1
2577 2
2578 2
2579 2
2580 1
2581 2
2582 1
2583 2
2584 2
2585 2
2586 2
2587 1
2588 2
2589 1
2590 1
2591 1
2592 2
2593 1
2594 2
2595 1
2596 1
2597 1
2598 1
2599 1
2600 1
2601 2
2602 2
2603 1
2604 1
2605 1
2606 2
2607 2
2608 1
2609 1
2610 2
2611 2
2612 2
2613 2
2614 2
2615 1
2616 1
2617 2
2618 2
2619 1
2620 1
2621 1
2622 2
2623 2
2624 1
2625 1
2626 2
2627 1
2628 2
2629 2
2630 1
2631 1
2632 1
2633 2
2634 1
2635 1
2636 2
2637 1
2638 1
2639 2
2640 1
2641 1
2642 2
2643 1
2644 1
2645 1
2646 1
2647 1
2648 1
2649 2
2650 1
2651 2
2652 1
2653 2
2654 1
2655 1
2656 2
2657 1
2658 2
2659 1
2660 2
2661 1
2662 2
2663 1
2664 2
2665 2
2666 2
2667 1
2668 2
2669 1
2670 2
2671 1
2672 2
2673 2
2674 2
2675 1
2676 2
2677 1
2678 2
2679 1
2680 1
2681 1
2682 2
2683 1
2684 2
2685 1
2686 1
2687 1
2688 2
2689 2
2690 1
2691 1
2692 1
2693 1
2694 1
2695 1
2696 1
2697 2
2698 1
2699 1
2700 1
2701 2
2702 1
2703 1
2704 2
2705 2
2706 2
2707 1
2708 1
2709 2
2710 1
2711 2
2712 1
2713 2
2714 2
2715 2
2716 1
2717 1
2718 2
2719 1
2720 2
2721 1
2722 2
2723 1
2724 1
2725 1
2726 2
2727 2
2728 2
2729 1
2730 1
2731 1
2732 2
2733 2
2734 1
2735 2
2736 1
2737 1
2738 2
2739 2
2740 2
2741 2
2742 2
2743 1
2744 1
2745 2
2746 2
2747 1
2748 2
2749 1
2750 1
2751 2
2752 1
2753 1
2754 1
2755 2
2756 2
2757 1
2758 1
2759 2
2760 2
2761 2
2762 2
2763 2
2764 2
2765 2
2766 1
2767 1
2768 1
2769 2
2770 1
2771 1
2772 1
2773 1
2774 2
2775 1
2776 1
2777 2
2778 1
2779 1
2780 1
2781 1
2782 2
2783 2
2784 1
2785 1
2786 1
2787 1
2788 2
2789 1
2790 1
2791 1
2792 2
2793 2
2794 2
2795 2
2796 2
2797 1
2798 1
2799 1
2800 2
2801 1
2802 1
2803 1
2804 2
2805 1
2806 2
2807 2
2808 1
2809 1
2810 2
2811 1
2812 1
2813 1
2814 2
2815 1
2816 2
2817 2
2818 1
2819 1
2820 1
2821 2
2822 1
2823 2
2824 1
2825 2
2826 1
2827 2
2828 1
2829 1
2830 2
2831 2
2832 1
2833 2
2834 2
2835 2
2836 2
2837 1
2838 2
2839 1
2840 2
2841 2
2842 1
2843 1
2844 2
2845 1
2846 1
2847 2
2848 2
2849 2
2850 1
2851 2
2852 1
2853 1
2854 1
2855 1
2856 1
2857 1
2858 1
2859 2
2860 1
2861 2
2862 1
2863 2
2864 1
2865 1
2866 1
2867 1
2868 2
2869 2
2870 2
2871 2
2872 2
2873 2
2874 1
2875 1
2876 1
2877 2
2878 2
2879 1
2880 1
2881 2
2882 1
2883 1
2884 1
2885 2
2886 1
2887 2
2888 1
2889 2
2890 2
2891 1
2892 2
2893 1
2894 1
2895 1
2896 1
2897 2
2898 1
2899 2
2900 1
2901 1
2902 1
2903 2
2904 2
2905 2
2906 1
2907 1
2908 2
2909 2
2910 1
2911 1
2912 1
2913 1
2914 1
2915 1
2916 1
2917 1
2918 2
2919 1
2920 1
2921 1
2922 2
2923 2
2924 1
2925 1
2926 2
2927 2
2928 1
2929 1
2930 2
2931 1
2932 2
2933 1
2934 2
2935 2
2936 2
2937 2
2938 2
2939 1
2940 1
2941 1
2942 1
2943 1
2944 2
2945 1
2946 2
2947 1
2948 2
2949 2
2950 1
2951 1
2952 1
2953 1
2954 1
2955 1
2956 2
2957 2
2958 1
2959 1
2960 2
2961 1
2962 1
2963 1
2964 1
2965 2
2966 1
2967 1
2968 1
2969 1
2970 2
2971 2
2972 1
2973 2
2974 1
2975 2
2976 1
2977 1
2978 2
2979 2
2980 1
2981 1
2982 2
2983 1
2984 1
2985 2
2986 1
2987 1
2988 1
2989 1
2990 2
2991 1
2992 1
2993 2
2994 1
2995 1
2996 1
2997 2
2998 1
2999 1
3000 1
